c Generated map
c Size: 8 * 8, weights in range: 1 to 10, walls: True, with ratio 0.05
c dim 8 of 8
c
p sp 64 103
c graph contains 64 nodes and 103 arcs
c
a 1 9 9
a 9 1 9
a 1 2 4
a 2 1 4
a 2 10 1
a 10 2 1
a 2 3 7
a 3 2 7
a 3 11 10
a 11 3 10
a 3 4 10
a 4 3 10
a 4 12 8
a 12 4 8
a 4 5 2
a 5 4 2
a 5 13 8
a 13 5 8
a 5 6 10
a 6 5 10
a 6 14 1
a 14 6 1
a 6 7 7
a 7 6 7
a 7 15 4
a 15 7 4
a 7 8 4
a 8 7 4
a 8 16 8
a 16 8 8
a 9 10 5
a 10 9 5
a 10 11 9
a 11 10 9
a 11 19 7
a 19 11 7
a 11 12 8
a 12 11 8
a 12 20 10
a 20 12 10
a 12 13 1
a 13 12 1
a 13 21 1
a 21 13 1
a 13 14 1
a 14 13 1
a 14 22 9
a 22 14 9
a 14 15 4
a 15 14 4
a 15 23 6
a 23 15 6
a 15 16 5
a 16 15 5
a 16 24 10
a 24 16 10
a 19 27 3
a 27 19 3
a 19 20 8
a 20 19 8
a 20 28 10
a 28 20 10
a 20 21 2
a 21 20 2
a 21 29 10
a 29 21 10
a 21 22 5
a 22 21 5
a 22 30 2
a 30 22 2
a 22 23 6
a 23 22 6
a 23 31 3
a 31 23 3
a 23 24 3
a 24 23 3
a 24 32 8
a 32 24 8
a 25 33 2
a 33 25 2
a 25 26 5
a 26 25 5
a 26 34 5
a 34 26 5
a 26 27 4
a 27 26 4
a 27 35 5
a 35 27 5
a 27 28 5
a 28 27 5
a 28 36 5
a 36 28 5
a 28 29 6
a 29 28 6
a 29 37 3
a 37 29 3
a 29 30 8
a 30 29 8
a 30 38 6
a 38 30 6
a 30 31 8
a 31 30 8
a 31 39 5
a 39 31 5
a 31 32 3
a 32 31 3
a 32 40 3
a 40 32 3
a 33 34 7
a 34 33 7
a 34 42 10
a 42 34 10
a 34 35 4
a 35 34 4
a 35 43 7
a 43 35 7
a 35 36 4
a 36 35 4
a 36 44 7
a 44 36 7
a 36 37 8
a 37 36 8
a 37 45 6
a 45 37 6
a 37 38 3
a 38 37 3
a 38 46 10
a 46 38 10
a 38 39 10
a 39 38 10
a 39 47 5
a 47 39 5
a 39 40 4
a 40 39 4
a 40 48 3
a 48 40 3
a 42 50 6
a 50 42 6
a 42 43 8
a 43 42 8
a 43 51 7
a 51 43 7
a 43 44 10
a 44 43 10
a 44 52 5
a 52 44 5
a 44 45 7
a 45 44 7
a 45 53 10
a 53 45 10
a 45 46 2
a 46 45 2
a 46 54 2
a 54 46 2
a 46 47 8
a 47 46 8
a 47 55 1
a 55 47 1
a 47 48 10
a 48 47 10
a 48 56 5
a 56 48 5
a 49 57 2
a 57 49 2
a 49 50 9
a 50 49 9
a 50 58 10
a 58 50 10
a 50 51 10
a 51 50 10
a 51 59 3
a 59 51 3
a 51 52 6
a 52 51 6
a 52 60 10
a 60 52 10
a 52 53 10
a 53 52 10
a 53 61 10
a 61 53 10
a 53 54 8
a 54 53 8
a 54 62 8
a 62 54 8
a 54 55 3
a 55 54 3
a 55 63 8
a 63 55 8
a 55 56 2
a 56 55 2
a 56 64 7
a 64 56 7
a 57 58 10
a 58 57 10
a 58 59 8
a 59 58 8
a 59 60 3
a 60 59 3
a 60 61 1
a 61 60 1
a 61 62 2
a 62 61 2
a 62 63 5
a 63 62 5
a 63 64 4
a 64 63 4
